100
32
1
7
7
7
15
5
12
10
2
16
27
11
11
16
2
3
2
3
1
18
3
2
4
1
1
1
2
1
22
2
17
1
17
20
7
2
2
4
1
1
2
2
2
1
1
5
24
2
4
1
1
2
28
1
2
1
20
1
2
1
1
2
2
3
2
3
1
2
1
1
17
2
3
4
4
2
1
1
1
2
2
1
1
2
18
17
11
3
2
1
2
1
3
1
4
1
20
3
1
1